db/inputs/178131883287431329432632408899907075.smt2
(set-logic QF_FP)
(declare-const x0 (_ FloatingPoint 11 53))
(declare-const x1 (_ FloatingPoint 11 53))
(declare-const x2 (_ FloatingPoint 11 53))
(declare-const x3 (_ FloatingPoint 11 53))
(declare-const x4 (_ FloatingPoint 11 53))
(declare-const x5 (_ FloatingPoint 11 53))
(declare-const x6 (_ FloatingPoint 11 53))
(assert (fp.gt (fp.mul RNE x4 x6) (fp.add RNE x1 x6)))
(assert (fp.geq (fp.mul RNE x1 x4) (fp.sub RNE x0 x1)))
(assert (fp.eq (fp.mul RNE x1 x4) (fp.neg x4)))
(assert (fp.gt (fp.sub RNE x2 x3) (fp.mul RNE x6 x6)))
(assert (fp.leq (fp.add RNE x3 x3) (fp.sub RNE x3 x1)))
(assert (fp.eq (fp.sub RNE x5 x5) (fp.mul RNE x2 x1)))
(assert (fp.eq (fp.mul RNE x6 x3) (fp.sub RNE x6 x2)))
(assert (fp.leq (fp.div RNE x6 x4) (fp.neg x3)))
(assert (fp.gt (fp.add RNE x3 x3) (fp.div RNE x6 x1)))
(assert (fp.leq (fp.neg x6) (fp.neg x6)))
(check-sat)
