db/data/178131883287431329432632408899907075.z3.out
-------------------
2500.063681898
